Geographic Exponential Decay
80 42 123 82 57 316 105 149 115 214 269 52 90 292 205 80 50 150 38 23 173 305 19 101 0 278 266 291 209 318 267 284 48 197 258 167 7 298 41 122 152 67 45 302 133 83 206 12 10 91 200 137 282 104 283 202 73 271 64 61 11 231 22 128 86 116 186 281 60 112 229 185 142 93 212 159 306 102 190 237 233
p edge 320 322
e 0 146 41.0
e 0 204 65.0
e 0 114 92.0
e 1 2 3.0
e 1 0 31.0
e 3 225 12.0
e 3 1 4.0
e 4 125 2.0
e 4 3 12.0
e 5 133 27.0
e 5 4 1.0
e 6 272 3.0
e 6 5 6.0
e 7 92 50.0
e 7 310 23.0
e 7 115 19.0
e 7 6 81.0
e 8 60 77.0
e 8 7 28.0
e 9 53 1.0
e 9 8 5.0
e 10 221 20.0
e 10 302 23.0
e 10 19 19.0
e 10 9 49.0
e 11 16 71.0
e 11 54 77.0
e 11 12 48.0
e 11 10 92.0
e 12 216 38.0
e 12 259 4.0
e 13 110 20.0
e 13 11 69.0
e 14 48 75.0
e 14 13 1.0
e 15 95 5.0
e 15 14 4.0
e 17 51 2.0
e 17 15 3.0
e 18 126 3.0
e 18 17 5.0
e 19 86 99.0
e 19 99 78.0
e 20 209 33.0
e 21 254 1.0
e 21 18 1.0
e 22 289 72.0
e 22 133 66.0
e 22 244 71.0
e 23 158 80.0
e 23 207 46.0
e 23 133 65.0
e 24 157 5.0
e 24 21 2.0
e 25 282 90.0
e 25 24 2.0
e 26 122 11.0
e 26 25 2.0
e 27 258 90.0
e 27 26 10.0
e 28 140 1.0
e 28 27 4.0
e 29 261 2.0
e 29 28 3.0
e 30 34 1.0
e 30 29 1.0
e 31 160 11.0
e 31 30 1.0
e 32 166 6.0
e 32 31 1.0
e 33 219 6.0
e 33 32 1.0
e 35 296 1.0
e 35 33 1.0
e 36 73 58.0
e 36 35 5.0
e 37 314 1.0
e 37 36 1.0
e 38 288 58.0
e 38 119 66.0
e 38 127 2.0
e 38 37 76.0
e 39 287 5.0
e 39 38 85.0
e 40 123 22.0
e 41 315 26.0
e 41 90 59.0
e 41 183 15.0
e 42 147 84.0
e 42 136 98.0
e 42 68 57.0
e 42 39 18.0
e 43 122 94.0
e 44 198 11.0
e 44 42 1.0
e 45 134 24.0
e 45 290 42.0
e 45 253 50.0
e 45 44 79.0
e 46 276 10.0
e 46 45 89.0
e 47 48 16.0
e 48 49 72.0
e 50 252 51.0
e 50 135 52.0
e 50 96 77.0
e 50 46 60.0
e 52 285 67.0
e 52 164 69.0
e 52 141 20.0
e 52 50 36.0
e 55 62 1.0
e 55 52 77.0
e 56 213 1.0
e 56 55 3.0
e 57 212 53.0
e 57 200 7.0
e 57 137 40.0
e 57 56 34.0
e 58 286 2.0
e 58 57 53.0
e 59 293 5.0
e 59 58 2.0
e 60 209 36.0
e 60 103 82.0
e 61 104 3.0
e 61 262 68.0
e 61 69 87.0
e 63 308 9.0
e 63 59 1.0
e 64 251 25.0
e 64 248 79.0
e 64 273 51.0
e 64 63 83.0
e 65 228 7.0
e 65 64 92.0
e 66 309 2.0
e 66 65 4.0
e 67 70 77.0
e 67 71 93.0
e 67 229 17.0
e 67 66 12.0
e 72 73 64.0
e 73 313 93.0
e 74 249 1.0
e 74 67 1.0
e 75 201 10.0
e 75 74 6.0
e 76 139 1.0
e 76 75 2.0
e 77 78 3.0
e 77 76 2.0
e 79 80 18.0
e 80 81 62.0
e 80 82 78.0
e 82 307 10.0
e 82 209 28.0
e 83 316 34.0
e 83 172 64.0
e 83 84 63.0
e 85 124 1.0
e 85 77 10.0
e 86 87 19.0
e 86 88 22.0
e 89 268 10.0
e 89 85 4.0
e 90 233 13.0
e 90 274 43.0
e 91 93 66.0
e 91 298 3.0
e 91 132 94.0
e 93 94 76.0
e 93 128 30.0
e 97 98 2.0
e 97 89 2.0
e 100 128 88.0
e 101 165 94.0
e 101 102 27.0
e 101 311 96.0
e 102 104 38.0
e 102 192 57.0
e 104 216 10.0
e 105 226 30.0
e 105 214 57.0
e 105 181 75.0
e 105 97 90.0
e 106 167 42.0
e 106 105 66.0
e 107 108 2.0
e 107 106 17.0
e 109 111 6.0
e 109 107 3.0
e 112 113 1.0
e 112 115 40.0
e 112 116 51.0
e 115 275 72.0
e 116 117 78.0
e 116 312 92.0
e 118 120 2.0
e 118 109 1.0
e 121 122 52.0
e 123 128 39.0
e 123 173 41.0
e 129 130 10.0
e 129 118 3.0
e 131 137 61.0
e 137 159 98.0
e 138 180 2.0
e 138 129 1.0
e 142 143 95.0
e 142 278 64.0
e 142 210 17.0
e 144 145 1.0
e 144 138 1.0
e 148 196 1.0
e 148 144 1.0
e 149 150 71.0
e 149 299 69.0
e 149 316 71.0
e 150 220 11.0
e 150 151 81.0
e 152 197 34.0
e 152 211 87.0
e 152 153 35.0
e 152 148 99.0
e 154 155 16.0
e 154 152 83.0
e 156 159 64.0
e 159 269 57.0
e 161 182 1.0
e 161 154 1.0
e 162 163 5.0
e 162 161 4.0
e 167 168 24.0
e 167 169 90.0
e 170 171 2.0
e 170 162 6.0
e 173 265 31.0
e 173 174 27.0
e 175 176 1.0
e 175 170 2.0
e 177 231 66.0
e 177 175 2.0
e 178 179 2.0
e 178 177 2.0
e 184 186 70.0
e 185 208 22.0
e 185 202 93.0
e 185 186 25.0
e 186 187 53.0
e 188 295 1.0
e 188 178 11.0
e 189 190 31.0
e 189 188 7.0
e 190 191 72.0
e 190 193 51.0
e 193 195 3.0
e 194 197 75.0
e 197 199 28.0
e 200 277 77.0
e 200 202 53.0
e 202 316 33.0
e 203 255 2.0
e 203 189 2.0
e 205 318 45.0
e 205 206 68.0
e 205 212 77.0
e 206 212 75.0
e 206 256 63.0
e 214 215 98.0
e 214 217 29.0
e 218 222 2.0
e 218 203 1.0
e 223 224 11.0
e 223 218 5.0
e 227 229 48.0
e 229 300 16.0
e 230 231 27.0
e 231 232 71.0
e 233 291 26.0
e 233 234 77.0
e 235 284 56.0
e 236 237 46.0
e 236 223 9.0
e 237 317 10.0
e 237 238 80.0
e 239 240 1.0
e 239 236 4.0
e 241 242 1.0
e 241 239 1.0
e 243 318 5.0
e 245 246 1.0
e 245 241 1.0
e 247 250 2.0
e 247 245 2.0
e 257 258 18.0
e 258 260 6.0
e 263 264 1.0
e 263 247 2.0
e 266 267 8.0
e 266 269 58.0
e 266 270 35.0
e 267 269 41.0
e 267 271 33.0
e 271 301 76.0
e 271 278 32.0
e 278 279 18.0
e 280 281 17.0
e 281 282 41.0
e 281 283 1.0
e 282 283 16.0
e 283 284 77.0
e 284 291 57.0
e 291 292 52.0
e 292 294 12.0
e 292 297 93.0
e 298 302 25.0
e 298 303 12.0
e 302 304 12.0
e 305 306 87.0
e 305 318 18.0
e 305 319 88.0
